nNurses = 189;
nHours = 27;
minHours = 5;
maxHours = 14;
maxConsec = 9;
maxPresence = 18;
demand = [32, 31, 31, 28, 23, 26, 27, 28, 33, 36, 36, 39, 34, 37, 39, 40, 40, 39, 34, 37, 39, 40, 36, 35, 37, 36, 32];
